p cnf 91 377
2 24 -32 56 -62 0
2 -32 -35 59 -61 0
3 4 23 -50 51 0
-4 -61 -63 78 84 0
-7 -8 -42 -60 -83 0
10 26 -27 -28 -34 0
-11 -14 -15 76 80 0
12 13 -31 -78 79 0
-14 -31 57 -73 79 0
17 -21 69 -72 -77 0
-31 57 -73 78 -79 0
-38 41 53 -54 -70 0
57 58 -73 78 79 0
-38 41 53 -54 -72 0
1 -19 -23 -60 0
1 21 -42 88 0
2 -35 -61 -74 0
-2 -6 -65 82 0
3 4 -50 51 0
3 5 -35 -62 0
3 19 -51 -68 0
-3 4 -51 68 0
-3 -16 -19 -89 0
-3 -16 68 -89 0
-3 -19 -51 -89 0
4 5 -82 -84 0
-4 -78 82 -84 0
-6 -35 37 -63 0
7 8 9 55 0
7 -8 42 46 0
7 40 45 -87 0
8 -45 48 55 0
10 11 12 26 0
10 11 12 -31 0
10 21 22 -77 0
10 46 60 83 0
11 -28 -31 57 0
11 -33 34 57 0
13 -51 85 91 0
-16 -19 -49 85 0
-16 -50 68 -89 0
18 39 60 69 0
-18 -19 -23 -40 0
19 -30 -33 -36 0
19 -65 -74 -75 0
-19 51 -85 91 0
-19 -66 86 89 0
20 22 -41 53 0
20 -38 -72 88 0
21 22 69 70 0
-25 -26 -28 59 0
-25 -65 -74 -75 0
29 30 58 -73 0
-38 54 71 -72 0
-41 -48 -53 72 0
45 46 -48 -55 0
-50 -51 68 -91 0
58 78 79 80 0
1 2 24 56 0
1 -42 45 60 0
3 24 -32 -62 0
-3 -51 -68 91 0
-5 78 82 84 0
7 9 46 -47 0
-14 -15 57 58 0
19 -32 56 59 0
-19 -23 25 -28 0
-19 -23 30 36 0
-19 -23 -51 81 0
-19 -23 -54 81 0
-19 -23 -56 -59 0
-19 51 -85 -91 0
-21 22 -69 -77 0
-25 -74 -75 -76 0
-38 53 -70 71 0
1 8 -88 0
1 10 -21 0
1 10 24 0
1 21 88 0
-1 8 -10 0
-1 -24 -59 0
-1 62 84 0
-1 -83 -88 0
2 6 -62 0
2 -62 65 0
-2 35 61 0
3 -13 90 0
3 23 27 0
3 59 -91 0
-3 50 67 0
-3 67 68 0
-3 67 -68 0
4 5 -52 0
4 -6 74 0
4 16 49 0
4 -32 61 0
4 -67 89 0
4 68 -85 0
5 52 78 0
6 -36 -37 0
-6 36 62 0
7 -48 55 0
-7 -40 87 0
-7 43 -45 0
-7 -46 -83 0
-7 -55 -87 0
8 -46 64 0
-8 -9 -45 0
-8 -19 -43 0
-8 47 48 0
9 -43 45 0
10 22 53 0
10 34 -57 0
-10 -26 27 0
11 14 -19 0
11 29 58 0
11 -33 36 0
12 26 -73 0
-12 -13 31 0
-12 -29 73 0
-12 -78 -79 0
13 -31 78 0
13 49 85 0
-14 -31 -76 0
15 -29 30 0
15 -58 80 0
-16 -49 -50 0
17 19 39 0
17 -22 -88 0
-17 -19 -77 0
-17 -39 -40 0
18 47 64 0
-18 -19 -64 0
-18 -38 54 0
-18 -38 -64 0
-18 -47 -48 0
19 28 32 0
19 -33 -80 0
19 51 81 0
-19 65 82 0
-19 -79 84 0
20 -72 -77 0
-21 22 70 0
-21 38 -72 0
22 41 -53 0
22 -69 88 0
23 34 56 0
23 38 41 0
23 -51 85 0
23 75 -76 0
-23 -24 -70 0
-23 -51 -89 0
-23 -61 65 0
-23 67 89 0
-23 86 90 0
-23 -86 91 0
25 32 33 0
25 -32 -34 0
25 33 36 0
25 65 74 0
25 76 80 0
27 -56 -61 0
29 -30 33 0
35 59 -74 0
-35 36 -37 0
-35 -56 61 0
-35 74 82 0
-36 37 63 0
38 39 64 0
38 54 72 0
40 -42 46 0
40 43 87 0
42 70 83 0
-44 -72 77 0
49 67 68 0
49 85 -86 0
-49 -50 -51 0
-50 -66 -89 0
51 67 -68 0
51 -68 -81 0
52 -61 -84 0
58 76 -80 0
-63 79 -84 0
66 -86 90 0
-66 -86 -90 0
68 -85 -91 0
70 83 88 0
1 2 0
1 27 0
1 32 0
1 -45 0
1 56 0
1 60 0
1 -74 0
-1 -2 0
-1 3 0
-1 -12 0
-1 -36 0
-1 45 0
-1 -56 0
2 61 0
-2 37 0
-2 89 0
3 5 0
3 18 0
3 24 0
3 32 0
3 -32 0
3 59 0
3 66 0
3 87 0
3 -91 0
-3 -4 0
-3 -13 0
-3 -16 0
-3 50 0
-3 84 0
-3 91 0
4 -51 0
4 -52 0
4 -56 0
4 -63 0
4 78 0
4 -85 0
-4 61 0
5 9 0
5 -42 0
5 -52 0
5 63 0
-5 -6 0
-5 -33 0
-5 35 0
-5 61 0
-5 -65 0
6 35 0
6 -82 0
-6 29 0
-6 -36 0
-6 52 0
-6 59 0
7 8 0
7 50 0
-7 -88 0
8 9 0
8 -13 0
8 -50 0
8 64 0
8 -70 0
-8 10 0
-8 -55 0
-8 -64 0
-8 87 0
-8 88 0
9 55 0
-9 -40 0
-9 43 0
-9 -46 0
-9 65 0
10 -40 0
10 -70 0
10 -72 0
10 83 0
-10 -11 0
-10 -13 0
-10 26 0
-10 -36 0
-10 73 0
11 15 0
11 26 0
11 -76 0
11 -80 0
-11 31 0
-11 -57 0
-11 -76 0
12 -27 0
12 34 0
12 58 0
12 -73 0
12 -79 0
-12 -37 0
-12 -57 0
-12 -58 0
-12 78 0
-12 79 0
13 58 0
13 69 0
13 89 0
13 -90 0
-13 -49 0
-13 57 0
-13 -85 0
14 31 0
14 -57 0
14 73 0
14 -78 0
14 -79 0
-14 58 0
-14 -79 0
15 31 0
15 37 0
-15 29 0
-15 -31 0
-15 -58 0
16 50 0
16 51 0
16 70 0
-16 -85 0
17 18 0
17 23 0
17 44 0
17 -44 0
-17 71 0
-17 72 0
18 21 0
18 48 0
18 54 0
18 81 0
-18 42 0
-18 -54 0
-18 -88 0
19 21 0
19 34 0
19 42 0
19 47 0
19 -50 0
19 54 0
19 69 0
19 -75 0
19 81 0
-19 -27 0
-19 -55 0
-19 -81 0
-19 -84 0
-19 -86 0
-19 -88 0
-19 -91 0
-20 -21 0
-20 -22 0
-20 72 0
-20 77 0
21 23 0
21 -72 0
-21 83 0
22 44 0
22 71 0
22 88 0
-22 -41 0
-22 53 0
-22 -71 0
23 -30 0
23 32 0
23 -36 0
23 41 0
23 42 0
23 -43 0
23 54 0
23 60 0
23 64 0
23 69 0
23 -74 0
23 -80 0
23 -85 0
-23 -26 0
-23 -34 0
-23 -38 0
-23 -48 0
-23 -53 0
-23 -65 0
-23 80 0
-23 -83 0
-23 -89 0
24 35 0
24 -42 0
-24 -25 0
-24 -33 0
-24 35 0
-24 -35 0
